52 52
4 14
25 5
7 23
16 4
25 1
2 18
14 9
24 45
15 33
8 41
9 13
26 29
3 48
10 32
9 2
22 15
4 21
13 27
6 11
23 52
15 40
20 22
16 28
21 46
11 6
1 31
5 3
12 26
22 35
17 19
19 42
17 50
18 36
12 34
2 47
1 17
6 10
11 25
23 12
8 51
20 30
24 44
26 43
5 16
10 7
21 8
3 49
18 38
13 20
14 24
7 39
19 37
